NAME: test1714
TYPE: TSP
DIMENSION: 11
EDGE_WEIGHT_TYPE: EUC_2D
NODE_COORD_SECTION
1 3.458038335819269 21.795784242093607
2 13.262457099480486 31.706958185046386
3 33.35231202364115 8.96157288488888
4 99.02047019538728 68.60147765297206
5 68.93746031321088 63.40953422206225
6 62.04718974210168 96.02756137713662
7 28.0858242272219 13.210278371510498
8 66.10080262495075 22.02801762971145
9 28.633242829992657 1.6856250071883294
10 28.94206551457984 5.346190122420569
11 25.02099957900592 11.762048755231525
EOF
